# Solution for model GasLib-40
# Objective value = 1.0744978116423999e+01
loadshed[innode_1] 0
loadshed[innode_2] 0
loadshed[innode_3] 0
loadshed[innode_4] 0
loadshed[innode_5] 0
loadshed[innode_6] 0
loadshed[innode_7] 0
loadshed[innode_8] 0
loadshed[source_1] -3.6761184689712390e-01
loadshed[source_2] 4.2844064330157527e-02
loadshed[source_3] 3.9273513810233318e-01
loadshed[sink_1] 0
loadshed[sink_2] 0
loadshed[sink_3] 0
loadshed[sink_4] 0
loadshed[sink_5] 0
loadshed[sink_6] 0
loadshed[sink_7] 0
loadshed[sink_8] 0
loadshed[sink_9] 0
loadshed[sink_10] 0
loadshed[sink_11] 0
loadshed[sink_12] 6.5701777017624452e-01
loadshed[sink_13] 0
loadshed[sink_14] 0
loadshed[sink_15] 0
loadshed[sink_16] 0
loadshed[sink_17] 0
loadshed[sink_18] 0
loadshed[sink_19] 0
loadshed[sink_20] 0
loadshed[sink_21] 0
loadshed[sink_22] 0
loadshed[sink_23] 0
loadshed[sink_24] 0
loadshed[sink_25] 0
loadshed[sink_26] 0
loadshed[sink_27] 0
loadshed[sink_28] 0
loadshed[sink_29] 0
flow[source_1,sink_3] 216.206136768146
flow[innode_1,sink_16] 1.6354166666666970e+01
flow[innode_6,sink_13] 1.8476495964594015e+01
flow[sink_13,sink_14] 2.1223292979273474e+00
flow[sink_14,sink_10] -1.4231837368739320e+01
flow[sink_25,sink_26] 1.7140694436747265e+02
flow[sink_26,sink_9] 1.2166696643008598e+02
flow[sink_9,sink_18] 1.0531279976341931e+02
flow[sink_26,sink_4] 3.3385811270719955e+01
flow[sink_4,sink_20] -1.7168490932063435e+01
flow[sink_18,sink_6] 8.8958633096752635e+01
flow[sink_25,innode_8] -1.8349780343480961e+02
flow[sink_6,sink_7] 3.9896133096752237e+01
flow[sink_6,sink_22] 3.2708333333333641e+01
flow[sink_7,sink_24] 3.8317521883576006e+01
flow[sink_22,sink_1] 1.6354166666666970e+01
flow[sink_24,sink_21] 2.1963355216909335e+01
flow[sink_21,sink_12] 5.6091885502426670e+00
flow[sink_7,sink_5] -1.4775555453490128e+01
flow[sink_5,sink_17] -3.1129722120156657e+01
flow[sink_17,sink_4] -3.4200135536116704e+01
flow[sink_17,sink_8] -1.3283753250706695e+01
flow[sink_3,sink_23] 16.3541666666697
flow[sink_8,sink_20] -2.9637919917373324e+01
flow[sink_25,sink_20] 6.3160577516103331e+01
flow[sink_25,sink_15] -8.5900381080026293e+01
flow[sink_15,sink_29] 0
flow[sink_29,sink_28] 1.6354166666667879e+01
flow[sink_29,sink_2] 1.1860871441335964e+02
flow[sink_2,sink_15] 1.0225454774669296e+02
flow[sink_29,innode_7] -1.5131704774669419e+02
flow[innode_4,sink_19] 9.6002670702086007e+01
flow[sink_19,innode_3] 0
flow[innode_4,innode_5] 0
flow[sink_27,innode_5] 0
flow[sink_27,sink_19] -1.6354166666679703e+01
flow[sink_10,sink_11] 3.2708333333333641e+01
flow[sink_10,innode_2] -6.3294337368739662e+01
flow[sink_10,innode_3] 0
flow[innode_6,sink_25] -1.8476495964594015e+01
flow[sink_11,innode_1] 1.6354166666666970e+01
flow[sink_19,innode_2] 6.3294337368739662e+01
flow[source_3,innode_4] 9.6002670702086007e+01
flow[source_2,innode_7] 1.5131704774669419e+02
flow[sink_3,innode_8] 1.8349780343480961e+02
pressure[innode_1] 7.3626868741942957e+01
pressure[innode_2] 7.7123937193659359e+01
pressure[innode_3] 7.7123937193659359e+01
pressure[innode_4] 81.01325
pressure[innode_5] 7.6772807196515856e+01
pressure[innode_6] 7.3211080049187260e+01
pressure[innode_7] 81.01325
pressure[innode_8] 8.0290555478522023e+01
pressure[source_1] 81.01325
pressure[source_2] 81.01325
pressure[source_3] 81.01325
pressure[sink_1] 4.5569838704170088e+01
pressure[sink_2] 7.3961619162485931e+01
pressure[sink_3] 8.0290555478522023e+01
pressure[sink_4] 5.6894231167806083e+01
pressure[sink_5] 5.3268275473219376e+01
pressure[sink_6] 4.7670916314557459e+01
pressure[sink_7] 4.7123237505127150e+01
pressure[sink_8] 5.6088445279568212e+01
pressure[sink_9] 53.8569076644653
pressure[sink_10] 73.7785700495465
pressure[sink_11] 7.3626868741942957e+01
pressure[sink_12] 1.0132500000000007e+00
pressure[sink_13] 7.3109222214643765e+01
pressure[sink_14] 7.3105424125582644e+01
pressure[sink_15] 73.6277806006323
pressure[sink_16] 7.2605218907125277e+01
pressure[sink_17] 5.5587214759076723e+01
pressure[sink_18] 5.0046376682899123e+01
pressure[sink_19] 7.7123937193659359e+01
pressure[sink_20] 5.8153791491708226e+01
pressure[sink_21] 3.0093062782614970e+00
pressure[sink_22] 4.6633607846525095e+01
pressure[sink_23] 8.0125837466862237e+01
pressure[sink_24] 3.2525300308980576e+00
pressure[sink_25] 7.3211080049187260e+01
pressure[sink_26] 6.1138989619102318e+01
pressure[sink_27] 7.6772807196515856e+01
pressure[sink_28] 7.6670829483012255e+01
pressure[sink_29] 7.6966111756629431e+01
interdiction[source_1,sink_3] 0
interdiction[innode_1,sink_16] 0
interdiction[innode_6,sink_13] 0
interdiction[sink_13,sink_14] 0
interdiction[sink_14,sink_10] 0
interdiction[sink_25,sink_26] 0
interdiction[sink_26,sink_9] 0
interdiction[sink_9,sink_18] 0
interdiction[sink_26,sink_4] 0
interdiction[sink_4,sink_20] 0
interdiction[sink_18,sink_6] 0
interdiction[sink_25,innode_8] 0
interdiction[sink_6,sink_7] 0
interdiction[sink_6,sink_22] 0
interdiction[sink_7,sink_24] 0
interdiction[sink_22,sink_1] 0
interdiction[sink_24,sink_21] 0
interdiction[sink_21,sink_12] 0
interdiction[sink_7,sink_5] 0
interdiction[sink_5,sink_17] 0
interdiction[sink_17,sink_4] 0
interdiction[sink_17,sink_8] 0
interdiction[sink_3,sink_23] 0
interdiction[sink_8,sink_20] 0
interdiction[sink_25,sink_20] 0
interdiction[sink_25,sink_15] 0
interdiction[sink_15,sink_29] 1
interdiction[sink_29,sink_28] 0
interdiction[sink_29,sink_2] 0
interdiction[sink_2,sink_15] 0
interdiction[sink_29,innode_7] 0
interdiction[innode_4,sink_19] 0
interdiction[sink_19,innode_3] 0
interdiction[innode_4,innode_5] 1
interdiction[sink_27,innode_5] 0
interdiction[sink_27,sink_19] 0
interdiction[sink_10,sink_11] 0
interdiction[sink_10,innode_2] 0
interdiction[sink_10,innode_3] 1
interdiction[innode_6,sink_25] 0
interdiction[sink_11,innode_1] 0
interdiction[sink_19,innode_2] 0
interdiction[source_3,innode_4] 0
interdiction[source_2,innode_7] 0
interdiction[sink_3,innode_8] 0
WCcheckFlow[source_1,sink_3] 39
WCcheckFlow[innode_1,sink_16] 1
WCcheckFlow[innode_6,sink_13] 13
WCcheckFlow[sink_13,sink_14] 12
WCcheckFlow[sink_14,sink_10] 11
WCcheckFlow[sink_25,sink_26] 15
WCcheckFlow[sink_26,sink_9] 12
WCcheckFlow[sink_9,sink_18] 11
WCcheckFlow[sink_26,sink_4] 2
WCcheckFlow[sink_4,sink_20] 1
WCcheckFlow[sink_18,sink_6] 10
WCcheckFlow[sink_25,innode_8] -36
WCcheckFlow[sink_6,sink_7] 7
WCcheckFlow[sink_6,sink_22] 2
WCcheckFlow[sink_7,sink_24] 3
WCcheckFlow[sink_22,sink_1] 1
WCcheckFlow[sink_24,sink_21] 2
WCcheckFlow[sink_21,sink_12] 1
WCcheckFlow[sink_7,sink_5] 3
WCcheckFlow[sink_5,sink_17] 2
WCcheckFlow[sink_17,sink_4] 0
WCcheckFlow[sink_17,sink_8] 1
WCcheckFlow[sink_3,sink_23] 1
WCcheckFlow[sink_8,sink_20] 0
WCcheckFlow[sink_25,sink_20] 0
WCcheckFlow[sink_25,sink_15] 6
WCcheckFlow[sink_15,sink_29] 0
WCcheckFlow[sink_29,sink_28] 1
WCcheckFlow[sink_29,sink_2] -4
WCcheckFlow[sink_2,sink_15] -5
WCcheckFlow[sink_29,innode_7] 2
WCcheckFlow[innode_4,sink_19] -2
WCcheckFlow[sink_19,innode_3] 1
WCcheckFlow[innode_4,innode_5] 0
WCcheckFlow[sink_27,innode_5] 1
WCcheckFlow[sink_27,sink_19] -2
WCcheckFlow[sink_10,sink_11] 3
WCcheckFlow[sink_10,innode_2] 7
WCcheckFlow[sink_10,innode_3] 0
WCcheckFlow[innode_6,sink_25] -14
WCcheckFlow[sink_11,innode_1] 2
WCcheckFlow[sink_19,innode_2] -6
WCcheckFlow[source_3,innode_4] -1
WCcheckFlow[source_2,innode_7] -1
WCcheckFlow[sink_3,innode_8] 37
